%%%mzn-stat: initTime=0.002735291
%%%mzn-stat: objective=356
%%%mzn-stat: nodes=552
%%%mzn-stat: restarts=0
%%%mzn-stat: peakDepth=88
%%%mzn-stat: solveTime=0.029366252
%%%mzn-stat: variables=282
%%%mzn-stat: propagators=185
%%%mzn-stat: failures=406
%%%mzn-stat: propagations=49452
%%%mzn-stat: nogoods=406
%%%mzn-stat: AverageConflictSize=2.896551724137931
%%%mzn-stat: NumUnitNogoodsLearned=355
%%%mzn-stat: AverageLearnedNogoodLength=3.187192118226601
%%%mzn-stat: AverageBacktrackAmount=0
%%%mzn-stat: AverageLbd=1.6182266009852218
%%%mzn-stat-end
maxleg = 356;
succ = array1d(1..20,[4, 11, 1, 7, 3, 16, 8, 9, 18, 17, 5, 13, 19, 15, 12, 10, 20, 6, 2, 14]);
% time elapsed: 6.51 s
----------
==========
% time elapsed: 6.51 s
%%%mzn-stat: initTime=0.002735291
%%%mzn-stat: objective=356
%%%mzn-stat: nodes=552
%%%mzn-stat: restarts=0
%%%mzn-stat: peakDepth=88
%%%mzn-stat: solveTime=0.029373056
%%%mzn-stat: variables=282
%%%mzn-stat: propagators=185
%%%mzn-stat: failures=406
%%%mzn-stat: propagations=49452
%%%mzn-stat: nogoods=406
%%%mzn-stat: AverageConflictSize=2.896551724137931
%%%mzn-stat: NumUnitNogoodsLearned=355
%%%mzn-stat: AverageLearnedNogoodLength=3.187192118226601
%%%mzn-stat: AverageBacktrackAmount=0
%%%mzn-stat: AverageLbd=1.6182266009852218
%%%mzn-stat-end
